param n:=5;
param m:=7;
param gap_p:=1;
param mis_p:=1;
param r:=-1;
param a :=
1 1 1 
1 2 0 
1 3 1 
1 4 0 
1 5 0 
1 6 0 
1 7 0 
2 1 0 
2 2 1 
2 3 0 
2 4 0 
2 5 0 
2 6 0 
2 7 1 
3 1 0 
3 2 0 
3 3 0 
3 4 1 
3 5 0 
3 6 0 
3 7 0 
4 1 0 
4 2 1 
4 3 0 
4 4 0 
4 5 0 
4 6 0 
4 7 1 
5 1 0 
5 2 1 
5 3 0 
5 4 0 
5 5 0 
5 6 0 
5 7 1 
;
